(set-info :smt-lib-version 2.6)
(set-logic QF_ABV)
(set-info :source |
Generated by the tool Ultimate Automizer [1,2] which implements
an automata theoretic approach [3] to software verification.

This SMT script belongs to a set of SMT scripts that was generated by
applying Ultimate Automizer to benchmarks [4] from the SV-COMP 2023 [5,6].
This script may not contain all SMT commands that Ultimate Automizer
issued. In order to meet the restrictions for SMT-COMP benchmarks 
we dropped the commands for getting values (resp. models), 
unsatisfiable cores, and interpolants.

2023-03-21, Matthias Heizmann (heizmann@informatik.uni-freiburg.de)

[1] https://ultimate.informatik.uni-freiburg.de/automizer/
[2] Matthias Heizmann, Max Barth, Daniel Dietsch, Leonard Fichtner,
     Jochen Hoenicke, Dominik Klumpp, Mehdi Naouar, Tanja Schindler,
     Frank Schüssele, Andreas Podelski: Ultimate Automizer and the
     CommuHash Normal Form (Competition Contribution). TACAS 2023
[3] Matthias Heizmann, Jochen Hoenicke, Andreas Podelski: Software Model
     Checking for People Who Love Automata. CAV 2013
[4] https://github.com/sosy-lab/sv-benchmarks
[5] Dirk Beyer: Competition on Software Verification and
     Witness Validation: SV-COMP 2023.  TACAS 2023
[6] https://sv-comp.sosy-lab.org/2023/
|)
(set-info :license "https://creativecommons.org/licenses/by/4.0/")
(set-info :category "industrial")
(set-info :status unknown)
(declare-fun |#funAddr~thr1.base| () (_ BitVec 64))
(declare-fun |#funAddr~thr1.offset| () (_ BitVec 64))
(declare-fun |#funAddr~thr2.base| () (_ BitVec 64))
(declare-fun |#funAddr~thr2.offset| () (_ BitVec 64))
(declare-fun |#funAddr~main_thread.base| () (_ BitVec 64))
(declare-fun |#funAddr~main_thread.offset| () (_ BitVec 64))
(declare-fun ~unnamed0~0~P_ALL () (_ BitVec 32))
(declare-fun ~unnamed0~0~P_PID () (_ BitVec 32))
(declare-fun ~unnamed0~0~P_PGID () (_ BitVec 32))
(assert (and (= (_ bv0 64) (bvadd (_ bv1 64) |#funAddr~thr1.base|)) (= (_ bv0 64) |#funAddr~thr1.offset|)))
(assert (and (= (_ bv0 64) (bvadd |#funAddr~thr2.base| (_ bv1 64))) (= (_ bv1 64) |#funAddr~thr2.offset|)))
(assert (and (= |#funAddr~main_thread.offset| (_ bv2 64)) (= (_ bv0 64) (bvadd (_ bv1 64) |#funAddr~main_thread.base|))))
(assert (= ~unnamed0~0~P_ALL (_ bv0 32)))
(assert (= ~unnamed0~0~P_PID (_ bv1 32)))
(assert (= (_ bv2 32) ~unnamed0~0~P_PGID))
(declare-fun |v_#memory_int_71_const_-1468270585| () (Array (_ BitVec 64) (Array (_ BitVec 64) (_ BitVec 32))))
(declare-fun |v_ULTIMATE.start_main_~#__CS_cp_flag1~0#1.base_8_const_-352084384| () (_ BitVec 64))
(declare-fun |v_ULTIMATE.start_main_~#__CS_cp_flag1~0#1.offset_8_const_562440610| () (_ BitVec 64))
(declare-fun |v_~#flag1~0.base_4_const_147373755| () (_ BitVec 64))
(declare-fun |v_~#flag1~0.offset_4_const_-1657659715| () (_ BitVec 64))
(declare-fun |v_ULTIMATE.start_main_~#__CS_cp_flag2~0#1.base_8_const_-210682913| () (_ BitVec 64))
(declare-fun |v_ULTIMATE.start_main_~#__CS_cp_flag2~0#1.offset_8_const_-1012370495| () (_ BitVec 64))
(declare-fun |v_~#flag2~0.base_4_const_77473882| () (_ BitVec 64))
(declare-fun |v_~#flag2~0.offset_4_const_-446675940| () (_ BitVec 64))
(declare-fun |v_ULTIMATE.start_main_~#__CS_cp_turn~0#1.base_8_const_1744792334| () (_ BitVec 64))
(declare-fun |v_ULTIMATE.start_main_~#__CS_cp_turn~0#1.offset_8_const_434465776| () (_ BitVec 64))
(declare-fun |v_~#turn~0.base_6_const_-667954423| () (_ BitVec 64))
(declare-fun |v_~#turn~0.offset_6_const_-391133173| () (_ BitVec 64))
(declare-fun |v_ULTIMATE.start_main_~#__CS_cp_x~0#1.base_8_const_-692665139| () (_ BitVec 64))
(declare-fun |v_ULTIMATE.start_main_~#__CS_cp_x~0#1.offset_8_const_-1657968305| () (_ BitVec 64))
(declare-fun |v_~#x~0.base_4_const_1306971464| () (_ BitVec 64))
(declare-fun |v_~#x~0.offset_4_const_-461548150| () (_ BitVec 64))
(declare-fun |v_~#__CS_thread_born_round~0.base_6_const_-1016668056| () (_ BitVec 64))
(declare-fun |v_~#__CS_thread_born_round~0.offset_6_const_-2053727958| () (_ BitVec 64))
(declare-fun v_~__CS_round~0_32_const_1613994072 () (_ BitVec 8))
(declare-fun |v_~#__CS_thread_status~0.base_15_const_56953580| () (_ BitVec 64))
(declare-fun |v_~#__CS_thread_status~0.offset_15_const_-1919497366| () (_ BitVec 64))
(declare-fun v_~__THREAD_RUNNING~0_4_const_-1361775354 () (_ BitVec 8))
(declare-fun |v_~#__CS_thread_allocated~0.base_5_const_-1693734016| () (_ BitVec 64))
(declare-fun |v_~#__CS_thread_allocated~0.offset_5_const_-211819902| () (_ BitVec 64))
(declare-fun |v_#memory_int_60_const_-1468270489| () (Array (_ BitVec 64) (Array (_ BitVec 64) (_ BitVec 32))))
(declare-fun |v_~#__CS_thread_lockedon~0.base_8_const_1870902617| () (_ BitVec 64))
(declare-fun |v_~#__CS_thread_lockedon~0.offset_8_const_-2049935653| () (_ BitVec 64))
(declare-fun |v_#memory_int_72_const_-1468270586| () (Array (_ BitVec 64) (Array (_ BitVec 64) (_ BitVec 32))))
(declare-fun |v_#memory_$Pointer$.base_67_const_1579253887| () (Array (_ BitVec 64) (Array (_ BitVec 64) (_ BitVec 64))))
(declare-fun |v_#memory_$Pointer$.base_68_const_1579253886| () (Array (_ BitVec 64) (Array (_ BitVec 64) (_ BitVec 64))))
(declare-fun |v_#memory_$Pointer$.base_64_const_1579253874| () (Array (_ BitVec 64) (Array (_ BitVec 64) (_ BitVec 64))))
(declare-fun |v_#memory_$Pointer$.base_65_const_1579253873| () (Array (_ BitVec 64) (Array (_ BitVec 64) (_ BitVec 64))))
(declare-fun |v_#memory_$Pointer$.offset_64_const_1484089780| () (Array (_ BitVec 64) (Array (_ BitVec 64) (_ BitVec 64))))
(declare-fun |v_#memory_$Pointer$.offset_65_const_1484089779| () (Array (_ BitVec 64) (Array (_ BitVec 64) (_ BitVec 64))))
(declare-fun v_~__CS_thread~0.base_18_const_-1365684398 () (Array (_ BitVec 64) (_ BitVec 64)))
(declare-fun v_~__CS_thread~0.base_17_const_-1365684397 () (Array (_ BitVec 64) (_ BitVec 64)))
(declare-fun |v_#memory_$Pointer$.offset_48_const_1484089854| () (Array (_ BitVec 64) (Array (_ BitVec 64) (_ BitVec 64))))
(declare-fun |v_#memory_$Pointer$.offset_49_const_1484089853| () (Array (_ BitVec 64) (Array (_ BitVec 64) (_ BitVec 64))))
(declare-fun |v_#memory_$Pointer$.base_50_const_1579253845| () (Array (_ BitVec 64) (Array (_ BitVec 64) (_ BitVec 64))))
(declare-fun |v_#memory_$Pointer$.base_51_const_1579253844| () (Array (_ BitVec 64) (Array (_ BitVec 64) (_ BitVec 64))))
(declare-fun |v_#memory_$Pointer$.base_53_const_1579253842| () (Array (_ BitVec 64) (Array (_ BitVec 64) (_ BitVec 64))))
(declare-fun |v_#memory_$Pointer$.base_54_const_1579253841| () (Array (_ BitVec 64) (Array (_ BitVec 64) (_ BitVec 64))))
(declare-fun |v_#memory_$Pointer$.offset_67_const_1484089777| () (Array (_ BitVec 64) (Array (_ BitVec 64) (_ BitVec 64))))
(declare-fun |v_#memory_$Pointer$.offset_68_const_1484089776| () (Array (_ BitVec 64) (Array (_ BitVec 64) (_ BitVec 64))))
(declare-fun |v_#memory_$Pointer$.offset_69_const_1484089791| () (Array (_ BitVec 64) (Array (_ BitVec 64) (_ BitVec 64))))
(declare-fun |v_#memory_$Pointer$.base_47_const_1579253949| () (Array (_ BitVec 64) (Array (_ BitVec 64) (_ BitVec 64))))
(declare-fun |v_#memory_$Pointer$.base_48_const_1579253948| () (Array (_ BitVec 64) (Array (_ BitVec 64) (_ BitVec 64))))
(declare-fun |v_#memory_$Pointer$.offset_66_const_1484089778| () (Array (_ BitVec 64) (Array (_ BitVec 64) (_ BitVec 64))))
(declare-fun v_~__CS_thread~0.offset_18_const_236801108 () (Array (_ BitVec 64) (_ BitVec 64)))
(declare-fun v_~__CS_thread~0.offset_17_const_236801109 () (Array (_ BitVec 64) (_ BitVec 64)))
(declare-fun |v_#memory_int_73_const_-1468270567| () (Array (_ BitVec 64) (Array (_ BitVec 64) (_ BitVec 32))))
(declare-fun |v_#memory_$Pointer$.offset_47_const_1484089855| () (Array (_ BitVec 64) (Array (_ BitVec 64) (_ BitVec 64))))
(declare-fun |v_#memory_$Pointer$.base_55_const_1579253840| () (Array (_ BitVec 64) (Array (_ BitVec 64) (_ BitVec 64))))
(declare-fun |v_#memory_$Pointer$.base_56_const_1579253855| () (Array (_ BitVec 64) (Array (_ BitVec 64) (_ BitVec 64))))
(declare-fun |v_#memory_$Pointer$.offset_50_const_1484089751| () (Array (_ BitVec 64) (Array (_ BitVec 64) (_ BitVec 64))))
(declare-fun v_~__CS_thread_index~0_15_const_1368743354 () (_ BitVec 8))
(declare-fun |v_#memory_int_74_const_-1468270568| () (Array (_ BitVec 64) (Array (_ BitVec 64) (_ BitVec 32))))
(declare-fun |v_#memory_$Pointer$.offset_63_const_1484089781| () (Array (_ BitVec 64) (Array (_ BitVec 64) (_ BitVec 64))))
(declare-fun |v_#memory_$Pointer$.offset_46_const_1484089840| () (Array (_ BitVec 64) (Array (_ BitVec 64) (_ BitVec 64))))
(declare-fun |v_#memory_$Pointer$.offset_51_const_1484089750| () (Array (_ BitVec 64) (Array (_ BitVec 64) (_ BitVec 64))))
(declare-fun |v_#memory_$Pointer$.offset_53_const_1484089748| () (Array (_ BitVec 64) (Array (_ BitVec 64) (_ BitVec 64))))
(declare-fun |v_#memory_$Pointer$.offset_54_const_1484089747| () (Array (_ BitVec 64) (Array (_ BitVec 64) (_ BitVec 64))))
(declare-fun |v_#memory_$Pointer$.offset_55_const_1484089746| () (Array (_ BitVec 64) (Array (_ BitVec 64) (_ BitVec 64))))
(declare-fun |v_#memory_$Pointer$.base_66_const_1579253872| () (Array (_ BitVec 64) (Array (_ BitVec 64) (_ BitVec 64))))
(declare-fun |v_#memory_$Pointer$.base_69_const_1579253885| () (Array (_ BitVec 64) (Array (_ BitVec 64) (_ BitVec 64))))
(declare-fun |v_#memory_$Pointer$.base_49_const_1579253947| () (Array (_ BitVec 64) (Array (_ BitVec 64) (_ BitVec 64))))
(declare-fun |v_#memory_$Pointer$.base_63_const_1579253875| () (Array (_ BitVec 64) (Array (_ BitVec 64) (_ BitVec 64))))
(declare-fun |v_ULTIMATE.start_main_~#__CS_cp___CS_thread_lockedon~0#1.base_12_const_-1112745699| () (_ BitVec 64))
(declare-fun |v_ULTIMATE.start_main_~#__CS_cp___CS_thread_lockedon~0#1.offset_12_const_-1401369445| () (_ BitVec 64))
(declare-fun |v_#memory_$Pointer$.base_46_const_1579253950| () (Array (_ BitVec 64) (Array (_ BitVec 64) (_ BitVec 64))))
(declare-fun |v_#memory_$Pointer$.offset_56_const_1484089745| () (Array (_ BitVec 64) (Array (_ BitVec 64) (_ BitVec 64))))
(declare-fun |v_#memory_$Pointer$.base_52_const_1579253843| () (Array (_ BitVec 64) (Array (_ BitVec 64) (_ BitVec 64))))
(declare-fun |v_#memory_int_75_const_-1468270565| () (Array (_ BitVec 64) (Array (_ BitVec 64) (_ BitVec 32))))
(declare-fun |v_#memory_int_76_const_-1468270566| () (Array (_ BitVec 64) (Array (_ BitVec 64) (_ BitVec 32))))
(declare-fun |v_#memory_int_83_const_-1468270554| () (Array (_ BitVec 64) (Array (_ BitVec 64) (_ BitVec 32))))
(declare-fun |v_ULTIMATE.start_main_~#__CS_cp___CS_thread_status~0#1.base_12_const_-527873466| () (_ BitVec 64))
(declare-fun |v_ULTIMATE.start_main_~#__CS_cp___CS_thread_status~0#1.offset_12_const_-628117756| () (_ BitVec 64))
(declare-fun |v_#memory_$Pointer$.offset_52_const_1484089749| () (Array (_ BitVec 64) (Array (_ BitVec 64) (_ BitVec 64))))
(declare-fun |v_ULTIMATE.start_main_#t~mem68#1_6_const_-1691303420| () (_ BitVec 8))
(assert (let ((.cse30 (select |v_#memory_$Pointer$.offset_68_const_1484089776| |v_~#__CS_thread_status~0.base_15_const_56953580|)) (.cse26 (select |v_#memory_$Pointer$.offset_65_const_1484089779| |v_~#__CS_thread_status~0.base_15_const_56953580|)) (.cse18 (select |v_#memory_int_72_const_-1468270586| |v_~#__CS_thread_lockedon~0.base_8_const_1870902617|)) (.cse35 (select |v_#memory_int_73_const_-1468270567| |v_~#__CS_thread_lockedon~0.base_8_const_1870902617|)) (.cse27 (select |v_#memory_$Pointer$.offset_64_const_1484089780| |v_~#__CS_thread_status~0.base_15_const_56953580|)) (.cse31 (select |v_#memory_$Pointer$.offset_67_const_1484089777| |v_~#__CS_thread_status~0.base_15_const_56953580|)) (.cse33 (select |v_#memory_$Pointer$.offset_66_const_1484089778| |v_~#__CS_thread_status~0.base_15_const_56953580|)) (.cse38 (select |v_#memory_$Pointer$.offset_50_const_1484089751| |v_~#x~0.base_4_const_1306971464|)) (.cse6 (bvadd |v_~#x~0.offset_4_const_-461548150| (_ bv4 64))) (.cse29 (select |v_#memory_$Pointer$.base_54_const_1579253841| |v_~#flag2~0.base_4_const_77473882|)) (.cse13 (bvadd (_ bv8 64) |v_~#flag2~0.offset_4_const_-446675940|)) (.cse43 (select |v_#memory_$Pointer$.offset_54_const_1484089747| |v_~#flag2~0.base_4_const_77473882|)) (.cse14 (bvadd |v_~#flag2~0.offset_4_const_-446675940| (_ bv4 64))) (.cse23 (select |v_#memory_$Pointer$.base_65_const_1579253873| |v_~#__CS_thread_status~0.base_15_const_56953580|)) (.cse20 (select |v_#memory_$Pointer$.base_68_const_1579253886| |v_~#__CS_thread_status~0.base_15_const_56953580|)) (.cse37 (select |v_#memory_$Pointer$.base_56_const_1579253855| |v_~#flag1~0.base_4_const_147373755|)) (.cse25 (select |v_#memory_$Pointer$.base_64_const_1579253874| |v_~#__CS_thread_status~0.base_15_const_56953580|)) (.cse17 (bvadd |v_~#flag1~0.offset_4_const_-1657659715| (_ bv4 64))) (.cse19 (bvadd |v_~#__CS_thread_lockedon~0.offset_8_const_-2049935653| (_ bv64 64))) (.cse47 (bvadd |v_ULTIMATE.start_main_~#__CS_cp___CS_thread_lockedon~0#1.offset_12_const_-1401369445| (_ bv64 64))) (.cse36 (bvadd |v_~#__CS_thread_lockedon~0.offset_8_const_-2049935653| (_ bv40 64))) (.cse49 (bvadd |v_ULTIMATE.start_main_~#__CS_cp___CS_thread_lockedon~0#1.offset_12_const_-1401369445| (_ bv40 64))) (.cse40 (bvadd |v_~#__CS_thread_lockedon~0.offset_8_const_-2049935653| (_ bv56 64))) (.cse51 (bvadd |v_ULTIMATE.start_main_~#__CS_cp___CS_thread_lockedon~0#1.offset_12_const_-1401369445| (_ bv56 64))) (.cse54 (bvadd |v_ULTIMATE.start_main_~#__CS_cp___CS_thread_lockedon~0#1.offset_12_const_-1401369445| (_ bv32 64))) (.cse57 (bvadd |v_ULTIMATE.start_main_~#__CS_cp___CS_thread_lockedon~0#1.offset_12_const_-1401369445| (_ bv48 64))) (.cse59 (bvadd |v_ULTIMATE.start_main_~#__CS_cp___CS_thread_lockedon~0#1.offset_12_const_-1401369445| (_ bv24 64))) (.cse56 (bvadd |v_~#__CS_thread_lockedon~0.offset_8_const_-2049935653| (_ bv48 64))) (.cse69 (select |v_#memory_int_75_const_-1468270565| |v_~#__CS_thread_lockedon~0.base_8_const_1870902617|)) (.cse39 (select |v_#memory_int_74_const_-1468270568| |v_~#__CS_thread_lockedon~0.base_8_const_1870902617|)) (.cse53 (bvadd |v_~#__CS_thread_lockedon~0.offset_8_const_-2049935653| (_ bv32 64))) (.cse68 (select |v_#memory_int_76_const_-1468270566| |v_~#__CS_thread_lockedon~0.base_8_const_1870902617|)) (.cse58 (bvadd |v_~#__CS_thread_lockedon~0.offset_8_const_-2049935653| (_ bv24 64))) (.cse41 (bvadd |v_~#__CS_thread_status~0.offset_15_const_-1919497366| (_ bv8 64))) (.cse24 (bvadd |v_~#__CS_thread_status~0.offset_15_const_-1919497366| (_ bv5 64))) (.cse34 (bvadd |v_~#__CS_thread_status~0.offset_15_const_-1919497366| (_ bv7 64))) (.cse21 (bvadd |v_~#__CS_thread_status~0.offset_15_const_-1919497366| (_ bv6 64))) (.cse32 (bvadd (_ bv3 64) |v_~#__CS_thread_status~0.offset_15_const_-1919497366|)) (.cse28 (select |v_#memory_$Pointer$.base_50_const_1579253845| |v_~#x~0.base_4_const_1306971464|)) (.cse5 (bvadd (_ bv8 64) |v_~#x~0.offset_4_const_-461548150|)) (.cse67 (select |v_#memory_$Pointer$.base_52_const_1579253843| |v_~#turn~0.base_6_const_-667954423|)) (.cse22 (select |v_#memory_$Pointer$.base_67_const_1579253887| |v_~#__CS_thread_status~0.base_15_const_56953580|)) (.cse44 (select |v_#memory_$Pointer$.base_66_const_1579253872| |v_~#__CS_thread_status~0.base_15_const_56953580|)) (.cse42 (bvadd |v_~#__CS_thread_status~0.offset_15_const_-1919497366| (_ bv4 64))) (.cse61 (select |v_#memory_$Pointer$.offset_56_const_1484089745| |v_~#flag1~0.base_4_const_147373755|)) (.cse16 (bvadd |v_~#flag1~0.offset_4_const_-1657659715| (_ bv8 64))) (.cse10 (bvadd |v_~#turn~0.offset_6_const_-391133173| (_ bv4 64))) (.cse76 (select |v_#memory_$Pointer$.offset_52_const_1484089749| |v_~#turn~0.base_6_const_-667954423|)) (.cse9 (bvadd (_ bv8 64) |v_~#turn~0.offset_6_const_-391133173|))) (and (= |v_#memory_int_60_const_-1468270489| (let ((.cse0 (let ((.cse1 (let ((.cse2 (let ((.cse3 (let ((.cse7 (let ((.cse11 (store |v_#memory_int_71_const_-1468270585| |v_~#flag1~0.base_4_const_147373755| (let ((.cse15 (store (select |v_#memory_int_71_const_-1468270585| |v_~#flag1~0.base_4_const_147373755|) .cse17 (select (select |v_#memory_int_71_const_-1468270585| |v_ULTIMATE.start_main_~#__CS_cp_flag1~0#1.base_8_const_-352084384|) (bvadd (_ bv4 64) |v_ULTIMATE.start_main_~#__CS_cp_flag1~0#1.offset_8_const_562440610|))))) (store .cse15 .cse16 (select (select (store |v_#memory_int_71_const_-1468270585| |v_~#flag1~0.base_4_const_147373755| .cse15) |v_ULTIMATE.start_main_~#__CS_cp_flag1~0#1.base_8_const_-352084384|) (bvadd (_ bv8 64) |v_ULTIMATE.start_main_~#__CS_cp_flag1~0#1.offset_8_const_562440610|))))))) (store .cse11 |v_~#flag2~0.base_4_const_77473882| (let ((.cse12 (store (select .cse11 |v_~#flag2~0.base_4_const_77473882|) .cse14 (select (select .cse11 |v_ULTIMATE.start_main_~#__CS_cp_flag2~0#1.base_8_const_-210682913|) (bvadd |v_ULTIMATE.start_main_~#__CS_cp_flag2~0#1.offset_8_const_-1012370495| (_ bv4 64)))))) (store .cse12 .cse13 (select (select (store .cse11 |v_~#flag2~0.base_4_const_77473882| .cse12) |v_ULTIMATE.start_main_~#__CS_cp_flag2~0#1.base_8_const_-210682913|) (bvadd (_ bv8 64) |v_ULTIMATE.start_main_~#__CS_cp_flag2~0#1.offset_8_const_-1012370495|)))))))) (store .cse7 |v_~#turn~0.base_6_const_-667954423| (let ((.cse8 (store (select .cse7 |v_~#turn~0.base_6_const_-667954423|) .cse10 (select (select .cse7 |v_ULTIMATE.start_main_~#__CS_cp_turn~0#1.base_8_const_1744792334|) (bvadd (_ bv4 64) |v_ULTIMATE.start_main_~#__CS_cp_turn~0#1.offset_8_const_434465776|))))) (store .cse8 .cse9 (select (select (store .cse7 |v_~#turn~0.base_6_const_-667954423| .cse8) |v_ULTIMATE.start_main_~#__CS_cp_turn~0#1.base_8_const_1744792334|) (bvadd (_ bv8 64) |v_ULTIMATE.start_main_~#__CS_cp_turn~0#1.offset_8_const_434465776|)))))))) (store .cse3 |v_~#x~0.base_4_const_1306971464| (let ((.cse4 (store (select .cse3 |v_~#x~0.base_4_const_1306971464|) .cse6 (select (select .cse3 |v_ULTIMATE.start_main_~#__CS_cp_x~0#1.base_8_const_-692665139|) (bvadd |v_ULTIMATE.start_main_~#__CS_cp_x~0#1.offset_8_const_-1657968305| (_ bv4 64)))))) (store .cse4 .cse5 (select (select (store .cse3 |v_~#x~0.base_4_const_1306971464| .cse4) |v_ULTIMATE.start_main_~#__CS_cp_x~0#1.base_8_const_-692665139|) (bvadd |v_ULTIMATE.start_main_~#__CS_cp_x~0#1.offset_8_const_-1657968305| (_ bv8 64))))))))) (store .cse2 |v_~#__CS_thread_born_round~0.base_6_const_-1016668056| (store (select .cse2 |v_~#__CS_thread_born_round~0.base_6_const_-1016668056|) |v_~#__CS_thread_born_round~0.offset_6_const_-2053727958| ((_ sign_extend 24) v_~__CS_round~0_32_const_1613994072)))))) (store .cse1 |v_~#__CS_thread_status~0.base_15_const_56953580| (store (select .cse1 |v_~#__CS_thread_status~0.base_15_const_56953580|) |v_~#__CS_thread_status~0.offset_15_const_-1919497366| ((_ sign_extend 24) v_~__THREAD_RUNNING~0_4_const_-1361775354)))))) (store .cse0 |v_~#__CS_thread_allocated~0.base_5_const_-1693734016| (store (select .cse0 |v_~#__CS_thread_allocated~0.base_5_const_-1693734016|) |v_~#__CS_thread_allocated~0.offset_5_const_-211819902| ((_ sign_extend 24) (_ bv1 8)))))) (= |v_#memory_int_71_const_-1468270585| (store |v_#memory_int_72_const_-1468270586| |v_~#__CS_thread_lockedon~0.base_8_const_1870902617| (store .cse18 .cse19 (select (select |v_#memory_int_71_const_-1468270585| |v_~#__CS_thread_lockedon~0.base_8_const_1870902617|) .cse19)))) (= |v_#memory_$Pointer$.base_67_const_1579253887| (store |v_#memory_$Pointer$.base_68_const_1579253886| |v_~#__CS_thread_status~0.base_15_const_56953580| (store .cse20 .cse21 (select .cse22 .cse21)))) (= (store |v_#memory_$Pointer$.base_65_const_1579253873| |v_~#__CS_thread_status~0.base_15_const_56953580| (store .cse23 .cse24 (select .cse25 .cse24))) |v_#memory_$Pointer$.base_64_const_1579253874|) (= |v_#memory_$Pointer$.offset_64_const_1484089780| (store |v_#memory_$Pointer$.offset_65_const_1484089779| |v_~#__CS_thread_status~0.base_15_const_56953580| (store .cse26 .cse24 (select .cse27 .cse24)))) (= (store v_~__CS_thread~0.base_18_const_-1365684398 (_ bv0 64) |#funAddr~main_thread.base|) v_~__CS_thread~0.base_17_const_-1365684397) (= (store |v_#memory_$Pointer$.offset_49_const_1484089853| |v_~#__CS_thread_born_round~0.base_6_const_-1016668056| (store (select |v_#memory_$Pointer$.offset_49_const_1484089853| |v_~#__CS_thread_born_round~0.base_6_const_-1016668056|) |v_~#__CS_thread_born_round~0.offset_6_const_-2053727958| (select (select |v_#memory_$Pointer$.offset_48_const_1484089854| |v_~#__CS_thread_born_round~0.base_6_const_-1016668056|) |v_~#__CS_thread_born_round~0.offset_6_const_-2053727958|))) |v_#memory_$Pointer$.offset_48_const_1484089854|) (= (store |v_#memory_$Pointer$.base_51_const_1579253844| |v_~#x~0.base_4_const_1306971464| (store (select |v_#memory_$Pointer$.base_51_const_1579253844| |v_~#x~0.base_4_const_1306971464|) .cse6 (select .cse28 .cse6))) |v_#memory_$Pointer$.base_50_const_1579253845|) (= (store |v_#memory_$Pointer$.base_54_const_1579253841| |v_~#flag2~0.base_4_const_77473882| (store .cse29 .cse13 (select (select |v_#memory_$Pointer$.base_53_const_1579253842| |v_~#flag2~0.base_4_const_77473882|) .cse13))) |v_#memory_$Pointer$.base_53_const_1579253842|) (= (store |v_#memory_$Pointer$.offset_68_const_1484089776| |v_~#__CS_thread_status~0.base_15_const_56953580| (store .cse30 .cse21 (select .cse31 .cse21))) |v_#memory_$Pointer$.offset_67_const_1484089777|) (= |v_#memory_$Pointer$.offset_68_const_1484089776| (store |v_#memory_$Pointer$.offset_69_const_1484089791| |v_~#__CS_thread_status~0.base_15_const_56953580| (store (select |v_#memory_$Pointer$.offset_69_const_1484089791| |v_~#__CS_thread_status~0.base_15_const_56953580|) .cse32 (select .cse30 .cse32)))) (= (store |v_#memory_$Pointer$.base_48_const_1579253948| |v_~#__CS_thread_status~0.base_15_const_56953580| (store (select |v_#memory_$Pointer$.base_48_const_1579253948| |v_~#__CS_thread_status~0.base_15_const_56953580|) |v_~#__CS_thread_status~0.offset_15_const_-1919497366| (select (select |v_#memory_$Pointer$.base_47_const_1579253949| |v_~#__CS_thread_status~0.base_15_const_56953580|) |v_~#__CS_thread_status~0.offset_15_const_-1919497366|))) |v_#memory_$Pointer$.base_47_const_1579253949|) (= (store |v_#memory_$Pointer$.offset_66_const_1484089778| |v_~#__CS_thread_status~0.base_15_const_56953580| (store .cse33 .cse34 (select .cse26 .cse34))) |v_#memory_$Pointer$.offset_65_const_1484089779|) (= (store v_~__CS_thread~0.offset_18_const_236801108 (_ bv0 64) |#funAddr~main_thread.offset|) v_~__CS_thread~0.offset_17_const_236801109) (= |v_#memory_int_72_const_-1468270586| (store |v_#memory_int_73_const_-1468270567| |v_~#__CS_thread_lockedon~0.base_8_const_1870902617| (store .cse35 .cse36 (select .cse18 .cse36)))) (= (store |v_#memory_$Pointer$.offset_48_const_1484089854| |v_~#__CS_thread_status~0.base_15_const_56953580| (store (select |v_#memory_$Pointer$.offset_48_const_1484089854| |v_~#__CS_thread_status~0.base_15_const_56953580|) |v_~#__CS_thread_status~0.offset_15_const_-1919497366| (select (select |v_#memory_$Pointer$.offset_47_const_1484089855| |v_~#__CS_thread_status~0.base_15_const_56953580|) |v_~#__CS_thread_status~0.offset_15_const_-1919497366|))) |v_#memory_$Pointer$.offset_47_const_1484089855|) (= (store |v_#memory_$Pointer$.base_56_const_1579253855| |v_~#flag1~0.base_4_const_147373755| (store .cse37 .cse16 (select (select |v_#memory_$Pointer$.base_55_const_1579253840| |v_~#flag1~0.base_4_const_147373755|) .cse16))) |v_#memory_$Pointer$.base_55_const_1579253840|) (= (store |v_#memory_$Pointer$.offset_50_const_1484089751| |v_~#x~0.base_4_const_1306971464| (store .cse38 .cse5 (select (select |v_#memory_$Pointer$.offset_49_const_1484089853| |v_~#x~0.base_4_const_1306971464|) .cse5))) |v_#memory_$Pointer$.offset_49_const_1484089853|) (= v_~__CS_thread_index~0_15_const_1368743354 (_ bv0 8)) (= |v_#memory_int_73_const_-1468270567| (store |v_#memory_int_74_const_-1468270568| |v_~#__CS_thread_lockedon~0.base_8_const_1870902617| (store .cse39 .cse40 (select .cse35 .cse40)))) (= (store |v_#memory_$Pointer$.offset_64_const_1484089780| |v_~#__CS_thread_status~0.base_15_const_56953580| (store .cse27 .cse41 (select (select |v_#memory_$Pointer$.offset_63_const_1484089781| |v_~#__CS_thread_status~0.base_15_const_56953580|) .cse41))) |v_#memory_$Pointer$.offset_63_const_1484089781|) (= (store |v_#memory_$Pointer$.offset_67_const_1484089777| |v_~#__CS_thread_status~0.base_15_const_56953580| (store .cse31 .cse42 (select .cse33 .cse42))) |v_#memory_$Pointer$.offset_66_const_1484089778|) (= (store |v_#memory_$Pointer$.offset_47_const_1484089855| |v_~#__CS_thread_allocated~0.base_5_const_-1693734016| (store (select |v_#memory_$Pointer$.offset_47_const_1484089855| |v_~#__CS_thread_allocated~0.base_5_const_-1693734016|) |v_~#__CS_thread_allocated~0.offset_5_const_-211819902| (select (select |v_#memory_$Pointer$.offset_46_const_1484089840| |v_~#__CS_thread_allocated~0.base_5_const_-1693734016|) |v_~#__CS_thread_allocated~0.offset_5_const_-211819902|))) |v_#memory_$Pointer$.offset_46_const_1484089840|) (= (store |v_#memory_$Pointer$.offset_51_const_1484089750| |v_~#x~0.base_4_const_1306971464| (store (select |v_#memory_$Pointer$.offset_51_const_1484089750| |v_~#x~0.base_4_const_1306971464|) .cse6 (select .cse38 .cse6))) |v_#memory_$Pointer$.offset_50_const_1484089751|) (= (store |v_#memory_$Pointer$.base_55_const_1579253840| |v_~#flag2~0.base_4_const_77473882| (store (select |v_#memory_$Pointer$.base_55_const_1579253840| |v_~#flag2~0.base_4_const_77473882|) .cse14 (select .cse29 .cse14))) |v_#memory_$Pointer$.base_54_const_1579253841|) (= (store |v_#memory_$Pointer$.offset_54_const_1484089747| |v_~#flag2~0.base_4_const_77473882| (store .cse43 .cse13 (select (select |v_#memory_$Pointer$.offset_53_const_1484089748| |v_~#flag2~0.base_4_const_77473882|) .cse13))) |v_#memory_$Pointer$.offset_53_const_1484089748|) (= (store |v_#memory_$Pointer$.offset_55_const_1484089746| |v_~#flag2~0.base_4_const_77473882| (store (select |v_#memory_$Pointer$.offset_55_const_1484089746| |v_~#flag2~0.base_4_const_77473882|) .cse14 (select .cse43 .cse14))) |v_#memory_$Pointer$.offset_54_const_1484089747|) (= (store |v_#memory_$Pointer$.base_66_const_1579253872| |v_~#__CS_thread_status~0.base_15_const_56953580| (store .cse44 .cse34 (select .cse23 .cse34))) |v_#memory_$Pointer$.base_65_const_1579253873|) (= (store |v_#memory_$Pointer$.base_69_const_1579253885| |v_~#__CS_thread_status~0.base_15_const_56953580| (store (select |v_#memory_$Pointer$.base_69_const_1579253885| |v_~#__CS_thread_status~0.base_15_const_56953580|) .cse32 (select .cse20 .cse32))) |v_#memory_$Pointer$.base_68_const_1579253886|) (= (store |v_#memory_$Pointer$.base_49_const_1579253947| |v_~#__CS_thread_born_round~0.base_6_const_-1016668056| (store (select |v_#memory_$Pointer$.base_49_const_1579253947| |v_~#__CS_thread_born_round~0.base_6_const_-1016668056|) |v_~#__CS_thread_born_round~0.offset_6_const_-2053727958| (select (select |v_#memory_$Pointer$.base_48_const_1579253948| |v_~#__CS_thread_born_round~0.base_6_const_-1016668056|) |v_~#__CS_thread_born_round~0.offset_6_const_-2053727958|))) |v_#memory_$Pointer$.base_48_const_1579253948|) (= |v_#memory_$Pointer$.base_56_const_1579253855| (let ((.cse45 (store |v_#memory_$Pointer$.base_63_const_1579253875| |v_~#__CS_thread_lockedon~0.base_8_const_1870902617| (let ((.cse46 (let ((.cse48 (let ((.cse50 (let ((.cse52 (let ((.cse55 (store (select |v_#memory_$Pointer$.base_63_const_1579253875| |v_~#__CS_thread_lockedon~0.base_8_const_1870902617|) .cse58 (select (select |v_#memory_$Pointer$.base_63_const_1579253875| |v_ULTIMATE.start_main_~#__CS_cp___CS_thread_lockedon~0#1.base_12_const_-1112745699|) .cse59)))) (store .cse55 .cse56 (select (select (store |v_#memory_$Pointer$.base_63_const_1579253875| |v_~#__CS_thread_lockedon~0.base_8_const_1870902617| .cse55) |v_ULTIMATE.start_main_~#__CS_cp___CS_thread_lockedon~0#1.base_12_const_-1112745699|) .cse57))))) (store .cse52 .cse53 (select (select (store |v_#memory_$Pointer$.base_63_const_1579253875| |v_~#__CS_thread_lockedon~0.base_8_const_1870902617| .cse52) |v_ULTIMATE.start_main_~#__CS_cp___CS_thread_lockedon~0#1.base_12_const_-1112745699|) .cse54))))) (store .cse50 .cse40 (select (select (store |v_#memory_$Pointer$.base_63_const_1579253875| |v_~#__CS_thread_lockedon~0.base_8_const_1870902617| .cse50) |v_ULTIMATE.start_main_~#__CS_cp___CS_thread_lockedon~0#1.base_12_const_-1112745699|) .cse51))))) (store .cse48 .cse36 (select (select (store |v_#memory_$Pointer$.base_63_const_1579253875| |v_~#__CS_thread_lockedon~0.base_8_const_1870902617| .cse48) |v_ULTIMATE.start_main_~#__CS_cp___CS_thread_lockedon~0#1.base_12_const_-1112745699|) .cse49))))) (store .cse46 .cse19 (select (select (store |v_#memory_$Pointer$.base_63_const_1579253875| |v_~#__CS_thread_lockedon~0.base_8_const_1870902617| .cse46) |v_ULTIMATE.start_main_~#__CS_cp___CS_thread_lockedon~0#1.base_12_const_-1112745699|) .cse47)))))) (store .cse45 |v_~#flag1~0.base_4_const_147373755| (store (select .cse45 |v_~#flag1~0.base_4_const_147373755|) .cse17 (select .cse37 .cse17))))) (= (store |v_#memory_$Pointer$.base_64_const_1579253874| |v_~#__CS_thread_status~0.base_15_const_56953580| (store .cse25 .cse41 (select (select |v_#memory_$Pointer$.base_63_const_1579253875| |v_~#__CS_thread_status~0.base_15_const_56953580|) .cse41))) |v_#memory_$Pointer$.base_63_const_1579253875|) (= (store |v_#memory_$Pointer$.base_47_const_1579253949| |v_~#__CS_thread_allocated~0.base_5_const_-1693734016| (store (select |v_#memory_$Pointer$.base_47_const_1579253949| |v_~#__CS_thread_allocated~0.base_5_const_-1693734016|) |v_~#__CS_thread_allocated~0.offset_5_const_-211819902| (select (select |v_#memory_$Pointer$.base_46_const_1579253950| |v_~#__CS_thread_allocated~0.base_5_const_-1693734016|) |v_~#__CS_thread_allocated~0.offset_5_const_-211819902|))) |v_#memory_$Pointer$.base_46_const_1579253950|) (= (let ((.cse60 (store |v_#memory_$Pointer$.offset_63_const_1484089781| |v_~#__CS_thread_lockedon~0.base_8_const_1870902617| (let ((.cse62 (let ((.cse63 (let ((.cse64 (let ((.cse65 (let ((.cse66 (store (select |v_#memory_$Pointer$.offset_63_const_1484089781| |v_~#__CS_thread_lockedon~0.base_8_const_1870902617|) .cse58 (select (select |v_#memory_$Pointer$.offset_63_const_1484089781| |v_ULTIMATE.start_main_~#__CS_cp___CS_thread_lockedon~0#1.base_12_const_-1112745699|) .cse59)))) (store .cse66 .cse56 (select (select (store |v_#memory_$Pointer$.offset_63_const_1484089781| |v_~#__CS_thread_lockedon~0.base_8_const_1870902617| .cse66) |v_ULTIMATE.start_main_~#__CS_cp___CS_thread_lockedon~0#1.base_12_const_-1112745699|) .cse57))))) (store .cse65 .cse53 (select (select (store |v_#memory_$Pointer$.offset_63_const_1484089781| |v_~#__CS_thread_lockedon~0.base_8_const_1870902617| .cse65) |v_ULTIMATE.start_main_~#__CS_cp___CS_thread_lockedon~0#1.base_12_const_-1112745699|) .cse54))))) (store .cse64 .cse40 (select (select (store |v_#memory_$Pointer$.offset_63_const_1484089781| |v_~#__CS_thread_lockedon~0.base_8_const_1870902617| .cse64) |v_ULTIMATE.start_main_~#__CS_cp___CS_thread_lockedon~0#1.base_12_const_-1112745699|) .cse51))))) (store .cse63 .cse36 (select (select (store |v_#memory_$Pointer$.offset_63_const_1484089781| |v_~#__CS_thread_lockedon~0.base_8_const_1870902617| .cse63) |v_ULTIMATE.start_main_~#__CS_cp___CS_thread_lockedon~0#1.base_12_const_-1112745699|) .cse49))))) (store .cse62 .cse19 (select (select (store |v_#memory_$Pointer$.offset_63_const_1484089781| |v_~#__CS_thread_lockedon~0.base_8_const_1870902617| .cse62) |v_ULTIMATE.start_main_~#__CS_cp___CS_thread_lockedon~0#1.base_12_const_-1112745699|) .cse47)))))) (store .cse60 |v_~#flag1~0.base_4_const_147373755| (store (select .cse60 |v_~#flag1~0.base_4_const_147373755|) .cse17 (select .cse61 .cse17)))) |v_#memory_$Pointer$.offset_56_const_1484089745|) (= |v_#memory_$Pointer$.base_52_const_1579253843| (store |v_#memory_$Pointer$.base_53_const_1579253842| |v_~#turn~0.base_6_const_-667954423| (store (select |v_#memory_$Pointer$.base_53_const_1579253842| |v_~#turn~0.base_6_const_-667954423|) .cse10 (select .cse67 .cse10)))) (= (store |v_#memory_int_76_const_-1468270566| |v_~#__CS_thread_lockedon~0.base_8_const_1870902617| (store .cse68 .cse56 (select .cse69 .cse56))) |v_#memory_int_75_const_-1468270565|) (= (_ bv0 8) v_~__CS_round~0_32_const_1613994072) (= |v_#memory_int_74_const_-1468270568| (store |v_#memory_int_75_const_-1468270565| |v_~#__CS_thread_lockedon~0.base_8_const_1870902617| (store .cse69 .cse53 (select .cse39 .cse53)))) (= |v_#memory_int_76_const_-1468270566| (let ((.cse70 (store |v_#memory_int_83_const_-1468270554| |v_~#__CS_thread_status~0.base_15_const_56953580| (let ((.cse71 (let ((.cse72 (let ((.cse73 (let ((.cse74 (let ((.cse75 (store (select |v_#memory_int_83_const_-1468270554| |v_~#__CS_thread_status~0.base_15_const_56953580|) .cse32 ((_ sign_extend 24) ((_ extract 7 0) (select (select |v_#memory_int_83_const_-1468270554| |v_ULTIMATE.start_main_~#__CS_cp___CS_thread_status~0#1.base_12_const_-527873466|) (bvadd (_ bv3 64) |v_ULTIMATE.start_main_~#__CS_cp___CS_thread_status~0#1.offset_12_const_-628117756|))))))) (store .cse75 .cse21 ((_ sign_extend 24) ((_ extract 7 0) (select (select (store |v_#memory_int_83_const_-1468270554| |v_~#__CS_thread_status~0.base_15_const_56953580| .cse75) |v_ULTIMATE.start_main_~#__CS_cp___CS_thread_status~0#1.base_12_const_-527873466|) (bvadd |v_ULTIMATE.start_main_~#__CS_cp___CS_thread_status~0#1.offset_12_const_-628117756| (_ bv6 64))))))))) (store .cse74 .cse42 ((_ sign_extend 24) ((_ extract 7 0) (select (select (store |v_#memory_int_83_const_-1468270554| |v_~#__CS_thread_status~0.base_15_const_56953580| .cse74) |v_ULTIMATE.start_main_~#__CS_cp___CS_thread_status~0#1.base_12_const_-527873466|) (bvadd |v_ULTIMATE.start_main_~#__CS_cp___CS_thread_status~0#1.offset_12_const_-628117756| (_ bv4 64))))))))) (store .cse73 .cse34 ((_ sign_extend 24) ((_ extract 7 0) (select (select (store |v_#memory_int_83_const_-1468270554| |v_~#__CS_thread_status~0.base_15_const_56953580| .cse73) |v_ULTIMATE.start_main_~#__CS_cp___CS_thread_status~0#1.base_12_const_-527873466|) (bvadd |v_ULTIMATE.start_main_~#__CS_cp___CS_thread_status~0#1.offset_12_const_-628117756| (_ bv7 64))))))))) (store .cse72 .cse24 ((_ sign_extend 24) ((_ extract 7 0) (select (select (store |v_#memory_int_83_const_-1468270554| |v_~#__CS_thread_status~0.base_15_const_56953580| .cse72) |v_ULTIMATE.start_main_~#__CS_cp___CS_thread_status~0#1.base_12_const_-527873466|) (bvadd |v_ULTIMATE.start_main_~#__CS_cp___CS_thread_status~0#1.offset_12_const_-628117756| (_ bv5 64))))))))) (store .cse71 .cse41 ((_ sign_extend 24) ((_ extract 7 0) (select (select (store |v_#memory_int_83_const_-1468270554| |v_~#__CS_thread_status~0.base_15_const_56953580| .cse71) |v_ULTIMATE.start_main_~#__CS_cp___CS_thread_status~0#1.base_12_const_-527873466|) (bvadd (_ bv8 64) |v_ULTIMATE.start_main_~#__CS_cp___CS_thread_status~0#1.offset_12_const_-628117756|))))))))) (store .cse70 |v_~#__CS_thread_lockedon~0.base_8_const_1870902617| (store (select .cse70 |v_~#__CS_thread_lockedon~0.base_8_const_1870902617|) .cse58 (select .cse68 .cse58))))) (= (store |v_#memory_$Pointer$.base_50_const_1579253845| |v_~#x~0.base_4_const_1306971464| (store .cse28 .cse5 (select (select |v_#memory_$Pointer$.base_49_const_1579253947| |v_~#x~0.base_4_const_1306971464|) .cse5))) |v_#memory_$Pointer$.base_49_const_1579253947|) (= (store |v_#memory_$Pointer$.base_52_const_1579253843| |v_~#turn~0.base_6_const_-667954423| (store .cse67 .cse9 (select (select |v_#memory_$Pointer$.base_51_const_1579253844| |v_~#turn~0.base_6_const_-667954423|) .cse9))) |v_#memory_$Pointer$.base_51_const_1579253844|) (= (store |v_#memory_$Pointer$.base_67_const_1579253887| |v_~#__CS_thread_status~0.base_15_const_56953580| (store .cse22 .cse42 (select .cse44 .cse42))) |v_#memory_$Pointer$.base_66_const_1579253872|) (= |v_#memory_$Pointer$.offset_55_const_1484089746| (store |v_#memory_$Pointer$.offset_56_const_1484089745| |v_~#flag1~0.base_4_const_147373755| (store .cse61 .cse16 (select (select |v_#memory_$Pointer$.offset_55_const_1484089746| |v_~#flag1~0.base_4_const_147373755|) .cse16)))) (= (store |v_#memory_$Pointer$.offset_53_const_1484089748| |v_~#turn~0.base_6_const_-667954423| (store (select |v_#memory_$Pointer$.offset_53_const_1484089748| |v_~#turn~0.base_6_const_-667954423|) .cse10 (select .cse76 .cse10))) |v_#memory_$Pointer$.offset_52_const_1484089749|) (= |v_ULTIMATE.start_main_#t~mem68#1_6_const_-1691303420| ((_ extract 7 0) (select (select |v_#memory_int_60_const_-1468270489| |v_~#__CS_thread_allocated~0.base_5_const_-1693734016|) |v_~#__CS_thread_allocated~0.offset_5_const_-211819902|))) (= |v_#memory_$Pointer$.offset_51_const_1484089750| (store |v_#memory_$Pointer$.offset_52_const_1484089749| |v_~#turn~0.base_6_const_-667954423| (store .cse76 .cse9 (select (select |v_#memory_$Pointer$.offset_51_const_1484089750| |v_~#turn~0.base_6_const_-667954423|) .cse9)))))))
(check-sat)
(exit)
